(declare-const i Int)
(declare-const tr Int)
(declare-const |i'| Int)
(declare-const term_to_project_onto Real)
(assert (and (<= (- i) 0) (<= (+ i -4) 0) (= (+ tr (- i)) 0)
               (= (+ |i'| (- i) -1) 0)
               (= term_to_project_onto (+ |i'| (- i)))))
(check-sat)
